sat
(:added-eqs                       93435
 :arith-eq-adapter                2491
 :arith-bound-propagations-lp     56122
 :arith-branch                    1271
 :arith-conflicts                 9445
 :arith-cube-calls                333
 :arith-dio-calls                 12
 :arith-dio-tighten-conflicts     1
 :arith-diseq                     46351
 :arith-fixed-eqs                 24821
 :arith-gcd-calls                 2218
 :arith-gcd-conflict              1
 :arith-grobner-calls             1500
 :arith-grobner-conflicts         506
 :arith-hnf-calls                 321
 :arith-horner-calls              407
 :arith-horner-conflicts          11
 :arith-horner-cross-nested-forms 57437
 :arith-lower                     54692
 :arith-make-feasible             45129
 :arith-max-columns               1739
 :arith-max-rows                  890
 :arith-nla-add-bounds            323
 :arith-nla-lemmas                5642
 :arith-nla-propagate-bounds      1880
 :arith-nla-propagate-eq          37043
 :arith-nra-calls                 377
 :arith-offset-eqs                15643
 :arith-patches                   2217
 :arith-patches-success           911
 :arith-upper                     67741
 :binary-propagations             304082
 :cnf-encoding-aux-vars           35
 :conflicts                       2633
 :decisions                       528107
 :del-clause                      11542
 :elim-unconstrained              184
 :final-checks                    4115
 :max-memory                      40.41
 :memory                          19.41
 :minimized-lits                  14841
 :mk-bool-var                     23380
 :mk-clause                       14882
 :mk-clause-binary                16444
 :nlsat-conflicts                 36478
 :nlsat-decisions                 2101
 :nlsat-propagations              1355193
 :nlsat-restarts                  1
 :nlsat-stages                    594071
 :num-allocs                      109401273920.00
 :num-checks                      2
 :propagations                    397231
 :restarts                        22
 :rlimit-count                    36342569
 :solve-eqs-elim-vars             104
 :solve-eqs-steps                 942
 :time                            32.50
 :total-time                      32.48)
